
===== New CPLEX run =====
Instance: /home/yorig/tuner/mpils-tests/instances/miplib/medium-2/supportcase6.mps
Config: /scratch/yorig/mpils-results-grid-ticks-10000-2proc-no-mip-start/medium-2/2proc/seed-2/9_supportcase6_seed-2_20260501_235419/iterated_local_search/run_2_worker_1/ils_config_2963655634116402775.prm
========================

Selected objective sense:  MINIMIZE
Selected objective  name:  OBJ
Selected RHS        name:  RHS1
Selected bound      name:  BND1
Version identifier: 22.1.2.0 | 2024-11-26 | 0edbb82fd
CPXPARAM_Threads                                 8
CPXPARAM_Parallel                                1
CPXPARAM_MIP_Cuts_Cliques                        -1
CPXPARAM_MIP_Cuts_Implied                        1
CPXPARAM_MIP_Limits_GomoryCand                   800
CPXPARAM_MIP_Cuts_Gomory                         -1
CPXPARAM_MIP_Cuts_PathCut                        -1
CPXPARAM_MIP_Cuts_MIRCut                         2
CPXPARAM_MIP_Cuts_Disjunctive                    2
CPXPARAM_Emphasis_MIP                            1
CPXPARAM_DetTimeLimit                            10000
CPXPARAM_MIP_Limits_ProbeTime                    240
Tried aggregator 3 times.
MIP Presolve eliminated 0 rows and 1 columns.
MIP Presolve modified 757 coefficients.
Aggregator did 7 substitutions.
Reduced MIP has 764 rows, 130044 columns, and 583545 nonzeros.
Reduced MIP has 130044 binaries, 0 generals, 0 SOSs, and 0 indicators.
Presolve time = 0.49 sec. (732.24 ticks)
Found incumbent of value 102597.533860 after 0.83 sec. (1185.29 ticks)
Tried aggregator 1 time.
Detecting symmetries...
Reduced MIP has 764 rows, 130044 columns, and 583545 nonzeros.
Reduced MIP has 130044 binaries, 0 generals, 0 SOSs, and 0 indicators.
Presolve time = 0.26 sec. (317.07 ticks)

        Nodes                                         Cuts/
   Node  Left     Objective  IInf  Best Integer    Best Bound    ItCnt     Gap

      0     1  -1.00000e+37     0   102597.5339        0.0000        0  100.00%

Implied bound cuts applied:  0
Mixed integer rounding cuts applied:  0
Disjunctive cuts applied:  0
Cone linearizations applied:  0

Root node processing (before b&c):
  Real time             =    8.60 sec. (10014.36 ticks)
Parallel b&c, 8 threads:
  Real time             =    0.00 sec. (0.00 ticks)
  Sync time (average)   =    0.00 sec.
  Wait time (average)   =    0.00 sec.
                          ------------
Total (root+branch&cut) =    8.60 sec. (10014.36 ticks)
Gap: 100%
Upper bound: 102598
Lower bound: 0
End of CPLEX run. Time: 8.62256 seconds

===== New CPLEX run =====
Instance: /home/yorig/tuner/mpils-tests/instances/miplib/medium-2/supportcase6.mps
Config: /scratch/yorig/mpils-results-grid-ticks-10000-2proc-no-mip-start/medium-2/2proc/seed-2/9_supportcase6_seed-2_20260501_235419/iterated_local_search/run_2_worker_1/ils_config_11047778510845316753.prm
========================

Selected objective sense:  MINIMIZE
Selected objective  name:  OBJ
Selected RHS        name:  RHS1
Selected bound      name:  BND1
Version identifier: 22.1.2.0 | 2024-11-26 | 0edbb82fd
CPXPARAM_Threads                                 8
CPXPARAM_Parallel                                1
CPXPARAM_MIP_Cuts_Cliques                        -1
CPXPARAM_MIP_Cuts_Implied                        -1
CPXPARAM_MIP_Limits_GomoryCand                   800
CPXPARAM_MIP_Cuts_Gomory                         -1
CPXPARAM_MIP_Cuts_PathCut                        -1
CPXPARAM_MIP_Cuts_MIRCut                         2
CPXPARAM_MIP_Cuts_Disjunctive                    2
CPXPARAM_Emphasis_MIP                            1
CPXPARAM_DetTimeLimit                            10000
CPXPARAM_MIP_Limits_ProbeTime                    240
Tried aggregator 3 times.
MIP Presolve eliminated 0 rows and 1 columns.
MIP Presolve modified 757 coefficients.
Aggregator did 7 substitutions.
Reduced MIP has 764 rows, 130044 columns, and 583545 nonzeros.
Reduced MIP has 130044 binaries, 0 generals, 0 SOSs, and 0 indicators.
Presolve time = 0.50 sec. (732.24 ticks)
Found incumbent of value 102597.533860 after 0.84 sec. (1185.29 ticks)
Tried aggregator 1 time.
Detecting symmetries...
Reduced MIP has 764 rows, 130044 columns, and 583545 nonzeros.
Reduced MIP has 130044 binaries, 0 generals, 0 SOSs, and 0 indicators.
Presolve time = 0.25 sec. (317.07 ticks)

        Nodes                                         Cuts/
   Node  Left     Objective  IInf  Best Integer    Best Bound    ItCnt     Gap

      0     1  -1.00000e+37     0   102597.5339        0.0000        0  100.00%

Mixed integer rounding cuts applied:  0
Disjunctive cuts applied:  0
Cone linearizations applied:  0

Root node processing (before b&c):
  Real time             =    9.01 sec. (10014.36 ticks)
Parallel b&c, 8 threads:
  Real time             =    0.00 sec. (0.00 ticks)
  Sync time (average)   =    0.00 sec.
  Wait time (average)   =    0.00 sec.
                          ------------
Total (root+branch&cut) =    9.01 sec. (10014.36 ticks)
Gap: 100%
Upper bound: 102598
Lower bound: 0
End of CPLEX run. Time: 9.03297 seconds

===== New CPLEX run =====
Instance: /home/yorig/tuner/mpils-tests/instances/miplib/medium-2/supportcase6.mps
Config: /scratch/yorig/mpils-results-grid-ticks-10000-2proc-no-mip-start/medium-2/2proc/seed-2/9_supportcase6_seed-2_20260501_235419/iterated_local_search/run_2_worker_1/ils_config_16491154835964837209.prm
========================

Selected objective sense:  MINIMIZE
Selected objective  name:  OBJ
Selected RHS        name:  RHS1
Selected bound      name:  BND1
Version identifier: 22.1.2.0 | 2024-11-26 | 0edbb82fd
CPXPARAM_Threads                                 8
CPXPARAM_Parallel                                1
CPXPARAM_MIP_Cuts_Cliques                        -1
CPXPARAM_MIP_Cuts_Implied                        1
CPXPARAM_MIP_Limits_GomoryCand                   800
CPXPARAM_MIP_Cuts_Gomory                         2
CPXPARAM_MIP_Cuts_PathCut                        -1
CPXPARAM_MIP_Cuts_MIRCut                         2
CPXPARAM_MIP_Cuts_Disjunctive                    2
CPXPARAM_Emphasis_MIP                            1
CPXPARAM_DetTimeLimit                            10000
CPXPARAM_MIP_Limits_ProbeTime                    240
Tried aggregator 3 times.
MIP Presolve eliminated 0 rows and 1 columns.
MIP Presolve modified 757 coefficients.
Aggregator did 7 substitutions.
Reduced MIP has 764 rows, 130044 columns, and 583545 nonzeros.
Reduced MIP has 130044 binaries, 0 generals, 0 SOSs, and 0 indicators.
Presolve time = 0.49 sec. (732.24 ticks)
Found incumbent of value 102597.533860 after 0.83 sec. (1185.29 ticks)
Tried aggregator 1 time.
Detecting symmetries...
Reduced MIP has 764 rows, 130044 columns, and 583545 nonzeros.
Reduced MIP has 130044 binaries, 0 generals, 0 SOSs, and 0 indicators.
Presolve time = 0.25 sec. (317.07 ticks)

        Nodes                                         Cuts/
   Node  Left     Objective  IInf  Best Integer    Best Bound    ItCnt     Gap

      0     1  -1.00000e+37     0   102597.5339        0.0000        0  100.00%

Implied bound cuts applied:  0
Mixed integer rounding cuts applied:  0
Gomory fractional cuts applied:  0
Disjunctive cuts applied:  0
Cone linearizations applied:  0

Root node processing (before b&c):
  Real time             =    8.85 sec. (10014.36 ticks)
Parallel b&c, 8 threads:
  Real time             =    0.00 sec. (0.00 ticks)
  Sync time (average)   =    0.00 sec.
  Wait time (average)   =    0.00 sec.
                          ------------
Total (root+branch&cut) =    8.85 sec. (10014.36 ticks)
Gap: 100%
Upper bound: 102598
Lower bound: 0
End of CPLEX run. Time: 8.8571 seconds

===== New CPLEX run =====
Instance: /home/yorig/tuner/mpils-tests/instances/miplib/medium-2/supportcase6.mps
Config: /scratch/yorig/mpils-results-grid-ticks-10000-2proc-no-mip-start/medium-2/2proc/seed-2/9_supportcase6_seed-2_20260501_235419/iterated_local_search/run_2_worker_1/ils_config_18149333337703176664.prm
========================

Selected objective sense:  MINIMIZE
Selected objective  name:  OBJ
Selected RHS        name:  RHS1
Selected bound      name:  BND1
Version identifier: 22.1.2.0 | 2024-11-26 | 0edbb82fd
CPXPARAM_Threads                                 8
CPXPARAM_Parallel                                1
CPXPARAM_MIP_Cuts_Cliques                        -1
CPXPARAM_MIP_Cuts_Implied                        1
CPXPARAM_MIP_Limits_GomoryCand                   800
CPXPARAM_MIP_Cuts_Gomory                         -1
CPXPARAM_MIP_Cuts_PathCut                        -1
CPXPARAM_MIP_Cuts_MIRCut                         2
CPXPARAM_MIP_Cuts_Disjunctive                    2
CPXPARAM_Emphasis_MIP                            1
CPXPARAM_DetTimeLimit                            10000
CPXPARAM_MIP_Limits_ProbeTime                    2
Tried aggregator 3 times.
MIP Presolve eliminated 0 rows and 1 columns.
MIP Presolve modified 757 coefficients.
Aggregator did 7 substitutions.
Reduced MIP has 764 rows, 130044 columns, and 583545 nonzeros.
Reduced MIP has 130044 binaries, 0 generals, 0 SOSs, and 0 indicators.
Presolve time = 0.48 sec. (732.24 ticks)
Found incumbent of value 102597.533860 after 0.83 sec. (1185.29 ticks)
Tried aggregator 1 time.
Detecting symmetries...
Reduced MIP has 764 rows, 130044 columns, and 583545 nonzeros.
Reduced MIP has 130044 binaries, 0 generals, 0 SOSs, and 0 indicators.
Presolve time = 0.26 sec. (317.07 ticks)
Probing time = 2.02 sec. (2560.06 ticks)
Clique table members: 229813.
MIP emphasis: integer feasibility.
MIP search method: dynamic search.
Parallel mode: deterministic, using up to 8 threads.
Root relaxation solution time = 1.37 sec. (2855.01 ticks)

        Nodes                                         Cuts/
   Node  Left     Objective  IInf  Best Integer    Best Bound    ItCnt     Gap

*     0+    0                       102597.5339        0.0000           100.00%
      0     0    45090.7322   140   102597.5339    45090.7322     2605   56.05%
      0     0    45123.2835   133   102597.5339   ZeroHalf: 4     2702   56.02%
      0     0    45124.4738   133   102597.5339   ZeroHalf: 6     2724   56.02%
      0     0    45124.7410   136   102597.5339   ZeroHalf: 1     2726   56.02%
*     0+    0                        72344.9351    45124.7410            37.63%
      0     0  -1.00000e+75     0    72344.9351    45124.7410     2726   37.63%

Implied bound cuts applied:  0
Mixed integer rounding cuts applied:  0
Zero-half cuts applied:  5
Disjunctive cuts applied:  0
Cone linearizations applied:  0

Root node processing (before b&c):
  Real time             =    7.49 sec. (10030.25 ticks)
Parallel b&c, 8 threads:
  Real time             =    0.00 sec. (0.00 ticks)
  Sync time (average)   =    0.00 sec.
  Wait time (average)   =    0.00 sec.
                          ------------
Total (root+branch&cut) =    7.49 sec. (10030.25 ticks)
Gap: 37.63%
Upper bound: 72344.9
Lower bound: 45124.7
End of CPLEX run. Time: 7.51341 seconds

===== New CPLEX run =====
Instance: /home/yorig/tuner/mpils-tests/instances/miplib/medium-2/supportcase6.mps
Config: /scratch/yorig/mpils-results-grid-ticks-10000-2proc-no-mip-start/medium-2/2proc/seed-2/9_supportcase6_seed-2_20260501_235419/iterated_local_search/run_2_worker_1/ils_config_9860089983931167965.prm
========================

Selected objective sense:  MINIMIZE
Selected objective  name:  OBJ
Selected RHS        name:  RHS1
Selected bound      name:  BND1
Version identifier: 22.1.2.0 | 2024-11-26 | 0edbb82fd
CPXPARAM_Threads                                 8
CPXPARAM_Parallel                                1
CPXPARAM_MIP_Cuts_Cliques                        -1
CPXPARAM_MIP_Cuts_FlowCovers                     1
CPXPARAM_MIP_Cuts_Implied                        1
CPXPARAM_MIP_Limits_GomoryCand                   800
CPXPARAM_MIP_Cuts_Gomory                         -1
CPXPARAM_MIP_Cuts_PathCut                        -1
CPXPARAM_MIP_Cuts_MIRCut                         2
CPXPARAM_MIP_Cuts_Disjunctive                    2
CPXPARAM_Emphasis_MIP                            1
CPXPARAM_DetTimeLimit                            10000
CPXPARAM_MIP_Limits_ProbeTime                    2
Tried aggregator 3 times.
MIP Presolve eliminated 0 rows and 1 columns.
MIP Presolve modified 757 coefficients.
Aggregator did 7 substitutions.
Reduced MIP has 764 rows, 130044 columns, and 583545 nonzeros.
Reduced MIP has 130044 binaries, 0 generals, 0 SOSs, and 0 indicators.
Presolve time = 0.49 sec. (732.24 ticks)
Found incumbent of value 102597.533860 after 0.83 sec. (1185.29 ticks)
Tried aggregator 1 time.
Detecting symmetries...
Reduced MIP has 764 rows, 130044 columns, and 583545 nonzeros.
Reduced MIP has 130044 binaries, 0 generals, 0 SOSs, and 0 indicators.
Presolve time = 0.25 sec. (317.07 ticks)
